Maximize
obj: x05 + x07 + x06 + x16 + x15 + x10 + x24 + x20 + x27 + x36 + x35 + x37 + x41 + x46 + x47 + x50 + x57 + x54 + x65 + x67 + x66 + x77 + x70 + x74 + x85 + x87 + x86 + x92 + x96 + x95 + x106 + x104 + x100 
Subject To
c1: x05 + x07 + x06 <= 1
c2: x16 + x15 + x10 <= 1
c3: x24 + x20 + x27 <= 1
c4: x36 + x35 + x37 <= 1
c5: x41 + x46 + x47 <= 1
c6: x50 + x57 + x54 <= 1
c7: x65 + x67 + x66 <= 1
c8: x77 + x70 + x74 <= 1
c9: x85 + x87 + x86 <= 1
c10: x92 + x96 + x95 <= 1
c11: x106 + x104 + x100 <= 1
c11: x10 + x20 + x50 + x70 + x100 <= 2
c12: x41 <= 1
c13: x92 <= 1
c14: <= 1
c15: x24 + x54 + x74 + x104 <= 1
c16: x05 + x15 + x35 + x65 + x85 + x95 <= 1
c17: x06 + x16 + x36 + x46 + x66 + x86 + x96 + x106 <= 1
c18: x07 + x27 + x37 + x47 + x57 + x67 + x77 + x87 <= 1
c19: <= 2
Bounds
0 <= x05 <= 1
0 <= x07 <= 1
0 <= x06 <= 1
0 <= x16 <= 1
0 <= x15 <= 1
0 <= x10 <= 1
0 <= x24 <= 1
0 <= x20 <= 1
0 <= x27 <= 1
0 <= x36 <= 1
0 <= x35 <= 1
0 <= x37 <= 1
0 <= x41 <= 1
0 <= x46 <= 1
0 <= x47 <= 1
0 <= x50 <= 1
0 <= x57 <= 1
0 <= x54 <= 1
0 <= x65 <= 1
0 <= x67 <= 1
0 <= x66 <= 1
0 <= x77 <= 1
0 <= x70 <= 1
0 <= x74 <= 1
0 <= x85 <= 1
0 <= x87 <= 1
0 <= x86 <= 1
0 <= x92 <= 1
0 <= x96 <= 1
0 <= x95 <= 1
0 <= x106 <= 1
0 <= x104 <= 1
0 <= x100 <= 1
Binary
x05 x07 x06 x16 x15 x10 x24 x20 x27 x36 x35 x37 x41 x46 x47 x50 x57 x54 x65 x67 x66 x77 x70 x74 x85 x87 x86 x92 x96 x95 x106 x104 x100 
End
